134,323
310,352
184,188
264,33
172,61
70,160
375,42
249,261
172,364
255,24
315,248
383,286
104,253
323,391
364,238
85,35
386,54
9,55
147,337
179,70
375,73
338,239
44,157
159,15
230,72
338,105
253,186
157,318
60,53
272,45
305,233
98,211
163,62
258,16
324,278
398,166
307,76
44,97
232,299
146,52
359,169
172,194
259,7
121,116
136,194
255,385
248,108
75,329
286,221
210,134
